
Gurobi 8.1.0 (win64, Python) logging started 12/11/18 18:44:09

Academic license - for non-commercial use only

Gurobi 8.1.0 (win64, Python) logging started 12/11/18 18:46:00

Academic license - for non-commercial use only

Gurobi 8.1.0 (win64, Python) logging started 12/11/18 18:54:20

Academic license - for non-commercial use only

Gurobi 8.1.0 (win64, Python) logging started 12/11/18 19:36:12

Academic license - for non-commercial use only

Gurobi 8.1.0 (win64, Python) logging started 12/11/18 19:37:59

Academic license - for non-commercial use only

Gurobi 8.1.0 (win64, Python) logging started 12/11/18 19:42:05

Academic license - for non-commercial use only

Gurobi 8.1.0 (win64, Python) logging started 12/11/18 19:42:41

Academic license - for non-commercial use only

Gurobi 8.1.0 (win64, Python) logging started 12/11/18 20:58:44

Academic license - for non-commercial use only

Gurobi 8.1.0 (win64, Python) logging started 12/11/18 21:03:41

Academic license - for non-commercial use only

Gurobi 8.1.0 (win64, Python) logging started 12/11/18 21:23:35

Academic license - for non-commercial use only

Gurobi 8.1.0 (win64, Python) logging started 12/11/18 21:51:00

Academic license - for non-commercial use only

Gurobi 8.1.0 (win64, Python) logging started 12/11/18 21:59:59

Academic license - for non-commercial use only

Gurobi 8.1.0 (win64, Python) logging started 12/11/18 22:04:45

Academic license - for non-commercial use only
